p edge 60 240
e 1 2
e 1 5
e 1 19
e 1 56
e 2 8
e 2 12
e 2 27
e 2 32
e 3 14
e 3 29
e 3 40
e 3 58
e 4 3
e 4 24
e 4 51
e 4 60
e 5 11
e 5 24
e 5 36
e 5 57
e 6 32
e 6 43
e 6 52
e 6 58
e 7 4
e 7 36
e 7 37
e 7 54
e 8 20
e 8 27
e 8 27
e 8 58
e 9 7
e 9 25
e 9 27
e 9 48
e 10 1
e 10 12
e 10 32
e 10 34
e 11 27
e 11 27
e 11 30
e 11 58
e 12 21
e 12 29
e 12 34
e 12 39
e 13 26
e 13 37
e 13 44
e 13 52
e 14 7
e 14 19
e 14 46
e 14 54
e 15 5
e 15 30
e 15 49
e 15 54
e 16 14
e 16 23
e 16 28
e 16 59
e 17 22
e 17 41
e 17 49
e 17 57
e 18 8
e 18 10
e 18 15
e 18 23
e 19 4
e 19 24
e 19 41
e 19 41
e 20 2
e 20 12
e 20 24
e 20 36
e 21 13
e 21 25
e 21 30
e 21 35
e 22 8
e 22 14
e 22 41
e 22 53
e 23 27
e 23 51
e 23 55
e 23 59
e 24 44
e 24 47
e 24 49
e 24 55
e 25 5
e 25 11
e 25 32
e 25 59
e 26 2
e 26 16
e 26 22
e 26 59
e 27 6
e 27 26
e 27 43
e 27 48
e 28 14
e 28 44
e 28 49
e 28 55
e 29 10
e 29 13
e 29 36
e 29 44
e 30 16
e 30 34
e 30 37
e 30 46
e 31 12
e 31 19
e 31 35
e 31 38
e 32 5
e 32 19
e 32 45
e 32 49
e 33 1
e 33 9
e 33 23
e 33 48
e 34 3
e 34 9
e 34 31
e 34 52
e 35 11
e 35 13
e 35 16
e 35 24
e 36 11
e 36 13
e 36 29
e 36 46
e 37 4
e 37 8
e 37 28
e 37 29
e 38 8
e 38 42
e 38 44
e 38 51
e 39 10
e 39 28
e 39 53
e 39 54
e 40 4
e 40 5
e 40 17
e 40 56
e 41 16
e 41 26
e 41 28
e 41 29
e 42 6
e 42 12
e 42 16
e 42 22
e 43 24
e 43 34
e 43 39
e 43 55
e 44 25
e 44 32
e 44 32
e 44 34
e 45 9
e 45 16
e 45 28
e 45 47
e 46 31
e 46 34
e 46 40
e 46 49
e 47 9
e 47 43
e 47 51
e 47 60
e 48 7
e 48 11
e 48 43
e 48 54
e 49 28
e 49 38
e 49 52
e 49 60
e 50 3
e 50 7
e 50 57
e 50 60
e 51 1
e 51 16
e 51 27
e 51 31
e 52 16
e 52 34
e 52 37
e 52 42
e 53 17
e 53 20
e 53 21
e 53 52
e 54 24
e 54 33
e 54 45
e 54 45
e 55 12
e 55 19
e 55 31
e 55 31
e 56 5
e 56 18
e 56 44
e 56 53
e 57 43
e 57 43
e 57 45
e 57 50
e 58 29
e 58 38
e 58 49
e 58 54
e 59 6
e 59 15
e 59 36
e 59 48
e 60 2
e 60 19
e 60 29
e 60 43
